unknown
(model
; cardinality of BoundSet is 6
(declare-sort BoundSet 0)
; rep: @uc_BoundSet_0
; rep: @uc_BoundSet_1
; rep: @uc_BoundSet_2
; rep: @uc_BoundSet_3
; rep: @uc_BoundSet_4
; rep: @uc_BoundSet_5
; cardinality of UnboundSet is 1
(declare-sort UnboundSet 0)
(declare-fun groundTerm_7 () UnboundSet)
(define-fun CrucialTo ((BOUND_VARIABLE_515 BoundSet) (BOUND_VARIABLE_516 BoundSet)) Bool true)
(define-fun Contains ((BOUND_VARIABLE_525 BoundSet) (BOUND_VARIABLE_526 BoundSet) (BOUND_VARIABLE_527 BoundSet)) Bool true)
(define-fun TravelsUpstream ((BOUND_VARIABLE_530 BoundSet)) Bool true)
(define-fun LaysEggs ((BOUND_VARIABLE_515 BoundSet) (BOUND_VARIABLE_516 BoundSet)) Bool true)
(define-fun ExistsBecauseOf ((BOUND_VARIABLE_515 BoundSet) (BOUND_VARIABLE_516 BoundSet)) Bool true)
(define-fun VitalToBalance ((BOUND_VARIABLE_525 BoundSet) (BOUND_VARIABLE_526 BoundSet) (BOUND_VARIABLE_527 BoundSet)) Bool false)
(define-fun VitalToExistence ((BOUND_VARIABLE_515 BoundSet) (BOUND_VARIABLE_516 BoundSet)) Bool false)
)
sat
(model
; cardinality of BoundSet is 1
(declare-sort BoundSet 0)
; rep: @uc_BoundSet_0
; cardinality of UnboundSet is 1
(declare-sort UnboundSet 0)
(declare-fun groundTerm_10 () UnboundSet)
(define-fun CrucialTo ((BOUND_VARIABLE_591 BoundSet) (BOUND_VARIABLE_592 BoundSet)) Bool true)
(define-fun Contains ((BOUND_VARIABLE_601 BoundSet) (BOUND_VARIABLE_602 BoundSet) (BOUND_VARIABLE_603 BoundSet)) Bool true)
(define-fun TravelsUpstream ((BOUND_VARIABLE_606 BoundSet)) Bool true)
(define-fun LaysEggs ((BOUND_VARIABLE_591 BoundSet) (BOUND_VARIABLE_592 BoundSet)) Bool true)
(define-fun ExistsBecauseOf ((BOUND_VARIABLE_591 BoundSet) (BOUND_VARIABLE_592 BoundSet)) Bool true)
(define-fun VitalToBalance ((BOUND_VARIABLE_601 BoundSet) (BOUND_VARIABLE_602 BoundSet) (BOUND_VARIABLE_603 BoundSet)) Bool true)
(define-fun VitalToExistence ((BOUND_VARIABLE_591 BoundSet) (BOUND_VARIABLE_592 BoundSet)) Bool false)
)
